set VV := 0 1 2 3 4 5 6 7 8 9 10 11 12 13 14 15 16 17 18 19 20 ;
set VS := 0 1 2 3 4 5 6 7 8 9 10 11 12 13 14 15 16 17 18 19 20 21 22 23 24 25 26 27 28 29 30 31 32 33 34 35 36 37 38 39 40 41 42 43 44 45 46 ;
param cv := 
0 10
1 21
2 23
3 24
4 12
5 14
6 18
7 10
8 13
9 17
10 16
11 21
12 11
13 13
14 23
15 13
16 14
17 16
18 15
19 14
20 20
;
param cs := 
0 24
1 32
2 32
3 36
4 23
5 26
6 29
7 21
8 23
9 20
10 20
11 23
12 34
13 32
14 22
15 20
16 32
17 21
18 23
19 32
20 22
21 37
22 40
23 25
24 40
25 26
26 35
27 35
28 21
29 35
30 34
31 27
32 25
33 31
34 23
35 25
36 30
37 26
38 20
39 32
40 29
41 33
42 25
43 25
44 26
45 30
46 20
;
param bv:	 0 1 2 3 4 5 6 7 8 9 10 11 12 13 14 15 16 17 18 19 20 := 
		0 0 0 0 0 0 24 0 0 21 13 0 0 0 0 0 0 0 0 0 0 0 
		1 0 0 21 12 15 0 0 0 23 0 0 0 0 0 0 0 0 0 0 0 0 
		2 0 0 0 0 0 0 0 10 0 0 0 0 0 0 0 0 0 0 23 0 0 
		3 0 0 0 0 25 0 0 0 0 0 0 0 0 0 0 24 0 0 21 0 0 
		4 0 0 0 0 0 0 21 0 18 0 0 0 0 0 0 19 0 0 0 0 0 
		5 0 0 0 0 0 0 20 14 0 0 0 0 0 0 0 24 0 0 0 0 0 
		6 0 0 0 0 0 0 0 0 0 0 0 0 0 0 0 0 0 0 0 20 0 
		7 0 0 0 0 0 0 0 0 0 0 0 19 0 0 0 0 0 0 0 0 0 
		8 0 0 0 0 0 0 0 0 0 0 23 0 0 0 0 0 0 0 18 0 0 
		9 0 0 0 0 0 0 0 0 0 0 0 16 0 0 0 0 0 0 0 0 22 
		10 0 0 0 0 0 0 0 0 0 0 0 0 0 0 0 0 0 0 10 0 0 
		11 0 0 0 0 0 0 0 0 0 0 0 0 0 0 0 0 19 0 0 0 14 
		12 0 0 0 0 0 0 0 0 0 0 0 0 0 0 22 0 12 0 0 0 0 
		13 0 0 0 0 0 0 0 0 0 0 0 0 0 0 0 0 0 0 0 0 15 
		14 0 0 0 0 0 0 0 0 0 0 0 0 0 0 0 14 0 0 24 0 0 
		15 0 0 0 0 0 0 0 0 0 0 0 0 0 0 0 0 0 0 0 0 0 
		16 0 0 0 0 0 0 0 0 0 0 0 0 0 0 0 0 0 0 0 0 0 
		17 0 0 0 0 0 0 0 0 0 0 0 0 0 0 0 0 0 0 0 14 0 
		18 0 0 0 0 0 0 0 0 0 0 0 0 0 0 0 0 0 0 0 0 0 
		19 0 0 0 0 0 0 0 0 0 0 0 0 0 0 0 0 0 0 0 0 0 
		20 0 0 0 0 0 0 0 0 0 0 0 0 0 0 0 0 0 0 0 0 0 
;
param bs:	 0 1 2 3 4 5 6 7 8 9 10 11 12 13 14 15 16 17 18 19 20 21 22 23 24 25 26 27 28 29 30 31 32 33 34 35 36 37 38 39 40 41 42 43 44 45 46 := 
		0 0 22 0 0 0 0 0 0 0 0 36 0 20 0 0 0 0 39 0 0 0 0 28 0 0 0 0 0 0 0 0 0 0 0 0 0 0 33 0 0 0 0 0 0 0 0 0 
		1 22 0 0 0 26 0 0 0 0 0 0 0 0 0 0 0 0 0 0 0 28 0 23 0 0 0 0 0 0 0 0 0 0 0 0 0 0 0 0 0 0 0 0 0 0 0 0 
		2 0 0 0 0 0 0 0 0 0 0 0 0 0 0 0 0 0 26 0 0 0 0 0 0 21 0 0 0 0 0 0 0 31 0 0 0 30 0 0 0 0 0 0 0 0 0 0 
		3 0 0 0 0 0 0 0 0 0 0 0 0 25 34 0 0 0 0 0 0 0 0 29 0 0 0 0 0 0 0 0 0 0 35 0 0 0 0 0 0 27 0 0 0 0 0 0 
		4 0 26 0 0 0 0 0 0 36 0 0 0 0 0 0 0 0 33 0 0 0 0 0 0 0 0 0 0 0 0 0 0 0 0 0 0 0 0 0 0 0 0 0 37 0 0 0 
		5 0 0 0 0 0 0 0 0 0 0 0 0 0 0 0 0 0 0 20 0 0 0 0 0 0 0 0 0 0 0 38 0 37 0 36 0 0 32 0 31 0 0 0 0 0 21 0 
		6 0 0 0 0 0 0 0 0 0 0 0 0 0 0 0 0 0 0 0 0 29 0 0 0 0 0 0 0 0 0 0 0 0 0 0 0 29 0 0 0 0 26 0 0 0 35 0 
		7 0 0 0 0 0 0 0 0 0 0 0 0 0 0 0 0 0 0 21 0 0 0 0 0 0 0 0 0 0 0 0 0 0 0 0 0 0 0 0 0 0 0 0 0 0 0 0 
		8 0 0 0 0 36 0 0 0 0 0 0 0 0 0 0 0 0 0 0 0 38 0 0 0 39 0 21 0 0 39 26 0 0 0 0 0 0 0 0 0 22 0 0 0 0 0 0 
		9 0 0 0 0 0 0 0 0 0 0 0 0 0 0 0 0 0 0 34 40 0 38 0 0 0 0 0 23 0 0 0 29 0 0 0 0 0 0 0 0 0 0 22 0 0 23 0 
		10 36 0 0 0 0 0 0 0 0 0 0 0 0 0 0 30 0 0 0 40 0 0 0 0 0 35 0 0 0 0 0 0 0 0 0 0 0 0 0 0 0 0 0 0 0 28 0 
		11 0 0 0 0 0 0 0 0 0 0 0 0 0 0 0 0 0 0 0 0 0 0 0 0 0 0 0 0 0 0 0 0 0 0 0 33 0 0 0 0 0 0 0 0 0 0 0 
		12 20 0 0 25 0 0 0 0 0 0 0 0 0 0 0 0 0 0 35 0 0 25 0 34 0 0 0 0 0 0 0 0 0 0 0 0 0 34 0 0 0 28 0 0 0 39 0 
		13 0 0 0 34 0 0 0 0 0 0 0 0 0 0 0 0 0 0 0 0 0 0 0 0 0 0 0 0 0 0 0 32 0 0 0 0 0 27 0 0 0 0 0 0 0 0 0 
		14 0 0 0 0 0 0 0 0 0 0 0 0 0 0 0 0 0 32 0 0 0 34 0 0 0 26 0 0 33 0 0 0 0 0 0 0 0 0 33 0 0 0 0 22 0 0 37 
		15 0 0 0 0 0 0 0 0 0 0 30 0 0 0 0 0 0 0 0 0 0 0 0 0 0 0 0 0 0 28 0 0 0 0 0 0 0 0 0 0 0 0 0 32 0 0 0 
		16 0 0 0 0 0 0 0 0 0 0 0 0 0 0 0 0 0 0 0 0 0 0 0 0 0 0 0 0 0 0 0 0 35 31 0 0 0 0 0 0 0 0 0 0 0 0 0 
		17 39 0 26 0 33 0 0 0 0 0 0 0 0 0 32 0 0 0 0 0 0 0 0 0 0 0 0 0 0 0 0 28 0 0 0 0 22 0 0 0 0 0 0 0 0 0 0 
		18 0 0 0 0 0 20 0 21 0 34 0 0 35 0 0 0 0 0 0 0 0 0 0 0 0 0 0 0 0 0 0 0 0 0 29 0 0 0 0 0 0 0 39 0 0 0 0 
		19 0 0 0 0 0 0 0 0 0 40 40 0 0 0 0 0 0 0 0 0 0 0 0 0 0 0 27 0 0 0 38 0 0 0 0 0 0 0 0 0 0 23 37 0 30 0 0 
		20 0 28 0 0 0 0 29 0 38 0 0 0 0 0 0 0 0 0 0 0 0 23 0 0 0 0 0 0 0 0 26 0 0 0 0 0 0 0 0 0 0 0 0 0 0 20 0 
		21 0 0 0 0 0 0 0 0 0 38 0 0 25 0 34 0 0 0 0 0 23 0 0 0 0 0 0 0 0 0 0 0 0 0 0 0 0 0 0 36 0 0 0 0 0 0 0 
		22 28 23 0 29 0 0 0 0 0 0 0 0 0 0 0 0 0 0 0 0 0 0 0 24 33 0 0 0 0 0 0 0 0 0 0 0 0 0 0 0 31 0 0 0 0 0 0 
		23 0 0 0 0 0 0 0 0 0 0 0 0 34 0 0 0 0 0 0 0 0 0 24 0 0 27 0 0 0 0 26 0 29 0 32 0 0 0 0 0 0 0 37 0 0 0 0 
		24 0 0 21 0 0 0 0 0 39 0 0 0 0 0 0 0 0 0 0 0 0 0 33 0 0 0 0 0 0 0 0 38 0 0 0 0 0 0 0 0 0 0 0 0 28 0 21 
		25 0 0 0 0 0 0 0 0 0 0 35 0 0 0 26 0 0 0 0 0 0 0 0 27 0 0 0 0 0 0 27 0 0 0 0 0 0 0 0 0 0 0 0 0 0 0 0 
		26 0 0 0 0 0 0 0 0 21 0 0 0 0 0 0 0 0 0 0 27 0 0 0 0 0 0 0 0 0 0 0 0 0 0 0 0 0 0 38 0 0 31 0 28 0 0 0 
		27 0 0 0 0 0 0 0 0 0 23 0 0 0 0 0 0 0 0 0 0 0 0 0 0 0 0 0 0 0 0 0 0 0 0 0 36 0 38 0 0 0 0 0 0 0 0 37 
		28 0 0 0 0 0 0 0 0 0 0 0 0 0 0 33 0 0 0 0 0 0 0 0 0 0 0 0 0 0 0 0 0 0 0 0 0 0 0 28 0 39 0 0 37 34 0 0 
		29 0 0 0 0 0 0 0 0 39 0 0 0 0 0 0 28 0 0 0 0 0 0 0 0 0 0 0 0 0 0 0 0 0 0 0 0 0 0 0 0 0 32 0 0 0 0 0 
		30 0 0 0 0 0 38 0 0 26 0 0 0 0 0 0 0 0 0 0 38 26 0 0 26 0 27 0 0 0 0 0 0 0 0 0 0 0 0 23 0 0 29 30 0 0 0 0 
		31 0 0 0 0 0 0 0 0 0 29 0 0 0 32 0 0 0 28 0 0 0 0 0 0 38 0 0 0 0 0 0 0 0 25 0 0 0 0 0 0 0 0 0 0 0 0 31 
		32 0 0 31 0 0 37 0 0 0 0 0 0 0 0 0 0 35 0 0 0 0 0 0 29 0 0 0 0 0 0 0 0 0 0 0 0 0 0 0 0 0 0 0 0 0 0 0 
		33 0 0 0 35 0 0 0 0 0 0 0 0 0 0 0 0 31 0 0 0 0 0 0 0 0 0 0 0 0 0 0 25 0 0 0 0 0 0 0 0 0 0 0 0 0 0 0 
		34 0 0 0 0 0 36 0 0 0 0 0 0 0 0 0 0 0 0 29 0 0 0 0 32 0 0 0 0 0 0 0 0 0 0 0 0 0 0 0 0 0 0 0 0 0 0 0 
		35 0 0 0 0 0 0 0 0 0 0 0 33 0 0 0 0 0 0 0 0 0 0 0 0 0 0 0 36 0 0 0 0 0 0 0 0 0 0 0 0 0 0 25 0 0 0 0 
		36 0 0 30 0 0 0 29 0 0 0 0 0 0 0 0 0 0 22 0 0 0 0 0 0 0 0 0 0 0 0 0 0 0 0 0 0 0 0 0 0 0 0 0 0 0 0 36 
		37 33 0 0 0 0 32 0 0 0 0 0 0 34 27 0 0 0 0 0 0 0 0 0 0 0 0 0 38 0 0 0 0 0 0 0 0 0 0 0 0 28 0 0 0 0 0 0 
		38 0 0 0 0 0 0 0 0 0 0 0 0 0 0 33 0 0 0 0 0 0 0 0 0 0 0 38 0 28 0 23 0 0 0 0 0 0 0 0 0 0 0 0 0 0 0 26 
		39 0 0 0 0 0 31 0 0 0 0 0 0 0 0 0 0 0 0 0 0 0 36 0 0 0 0 0 0 0 0 0 0 0 0 0 0 0 0 0 0 0 0 28 0 35 0 0 
		40 0 0 0 27 0 0 0 0 22 0 0 0 0 0 0 0 0 0 0 0 0 0 31 0 0 0 0 0 39 0 0 0 0 0 0 0 0 28 0 0 0 0 0 0 0 0 0 
		41 0 0 0 0 0 0 26 0 0 0 0 0 28 0 0 0 0 0 0 23 0 0 0 0 0 0 31 0 0 32 29 0 0 0 0 0 0 0 0 0 0 0 0 0 0 22 0 
		42 0 0 0 0 0 0 0 0 0 22 0 0 0 0 0 0 0 0 39 37 0 0 0 37 0 0 0 0 0 0 30 0 0 0 0 25 0 0 0 28 0 0 0 0 22 28 0 
		43 0 0 0 0 37 0 0 0 0 0 0 0 0 0 22 32 0 0 0 0 0 0 0 0 0 0 28 0 37 0 0 0 0 0 0 0 0 0 0 0 0 0 0 0 0 29 0 
		44 0 0 0 0 0 0 0 0 0 0 0 0 0 0 0 0 0 0 0 30 0 0 0 0 28 0 0 0 34 0 0 0 0 0 0 0 0 0 0 35 0 0 22 0 0 0 0 
		45 0 0 0 0 0 21 35 0 0 23 28 0 39 0 0 0 0 0 0 0 20 0 0 0 0 0 0 0 0 0 0 0 0 0 0 0 0 0 0 0 0 22 28 29 0 0 20 
		46 0 0 0 0 0 0 0 0 0 0 0 0 0 0 37 0 0 0 0 0 0 0 0 0 21 0 0 37 0 0 0 31 0 0 0 0 36 0 26 0 0 0 0 0 0 20 0 
;
